52 85 61 13 118 156 92 168 14 34 145 76 89 161 83 80 68 164 142 78 178 32 7 138 30 123 179 39 160 33 2 73 112 45 1 195 88 171 3 26 108 103 162 65 8 149 133 5 54 29 67 64 134 69 150 158 185 143 114 153 137 125 24 135 111 187 151 37 163 72 124 110 122 146 36 62 90 167 53 188 173 113 12 48 95 20 190 127 40 141 136 31 44 70 19 166 198 9 71 57 147 191 199 119 139 183 196 106 25 109 17 129 174 104 157 154 50 189 144 22 120 6 16 47 96 58 87 84 55 121 152 99 98 27 186 63 4 105 101 180 10 116 49 86 177 148 165 21 82 75 170 35 155 42 38 107 181 93 60 41 169 94 131 79 102 59 115 128 100 97 182 15 184 46 175 126 192 176 197 81 66 28 0 130 172 51 194 140 43 23 74 193 117 11 132 159 91 77 56 18 

